c User generated cnf file
p cnf 12 37
2 -6 6 0 
12 5 -3 0 
6 10 -2 0 
9 6 -10 0 
3 -1 8 0 
8 1 -1 0 
1 10 -7 0 
8 10 -10 0 
9 -4 11 0 
7 -3 7 0 
2 -8 6 0 
3 11 -12 0 
12 8 -4 0 
9 12 -6 0 
8 -9 10 0 
2 -7 9 0 
11 -3 11 0 
2 -6 6 0 
12 4 -1 0 
12 10 -7 0 
7 -10 3 0 
8 12 -12 0 
8 -1 12 0 
11 -4 6 0 
7 -4 10 0 
9 -4 1 0 
9 8 -8 0 
2 -7 9 0 
1 3 -1 0 
7 -8 9 0 
7 4 -3 0 
11 -7 12 0 
8 -11 5 0 
10 1 -4 0 
8 4 -11 0 
1 12 -12 0 
11 1 -3 0 
